p cnf 883 1927
1 0
2 0
3 0
4 0
5 0
6 0
7 0
8 0
9 0
10 0
-11 0
-12 0
-13 0
-14 0
-15 0
-16 0
-17 0
-18 0
-19 0
-20 21 0
-22 21 0
20 22 -21 0
23 -21 0
-23 21 0
-24 25 0
-26 25 0
24 26 -25 0
22 -25 0
-22 25 0
-27 28 0
-29 28 0
27 29 -28 0
26 -28 0
-26 28 0
-30 31 0
-32 31 0
30 32 -31 0
29 -31 0
-29 31 0
-33 34 0
-35 34 0
33 35 -34 0
32 -34 0
-32 34 0
-33 36 0
-37 36 0
33 37 -36 0
35 -36 0
-35 36 0
-38 39 0
-40 39 0
38 40 -39 0
41 -39 0
-41 39 0
-42 43 0
-44 43 0
42 44 -43 0
40 -43 0
-40 43 0
-45 46 0
-47 46 0
45 47 -46 0
44 -46 0
-44 46 0
-48 49 0
-50 49 0
48 50 -49 0
47 -49 0
-47 49 0
-51 52 0
-53 52 0
51 53 -52 0
50 -52 0
-50 52 0
-45 54 0
-48 54 0
-51 54 0
-55 54 0
45 48 51 55 -54 0
53 -54 0
-53 54 0
-56 57 0
-58 57 0
56 58 -57 0
59 -57 0
-59 57 0
-60 61 0
-62 61 0
60 62 -61 0
58 -61 0
-58 61 0
-63 64 0
-65 64 0
63 65 -64 0
62 -64 0
-62 64 0
-56 66 0
-60 66 0
-63 66 0
-67 66 0
56 60 63 67 -66 0
65 -66 0
-65 66 0
-68 69 0
-70 69 0
68 70 -69 0
71 -69 0
-71 69 0
-72 73 0
-74 73 0
72 74 -73 0
70 -73 0
-70 73 0
-75 76 0
-77 76 0
75 77 -76 0
74 -76 0
-74 76 0
-78 79 0
-80 79 0
78 80 -79 0
77 -79 0
-77 79 0
-81 82 0
-83 82 0
81 83 -82 0
80 -82 0
-80 82 0
-75 84 0
-78 84 0
-81 84 0
-85 84 0
75 78 81 85 -84 0
83 -84 0
-83 84 0
-86 87 0
-88 87 0
86 88 -87 0
89 -87 0
-89 87 0
-90 91 0
-92 91 0
90 92 -91 0
88 -91 0
-88 91 0
-93 94 0
-95 94 0
93 95 -94 0
92 -94 0
-92 94 0
-96 97 0
-98 97 0
96 98 -97 0
95 -97 0
-95 97 0
98 -99 0
99 -98 0
-100 101 0
-102 101 0
100 102 -101 0
103 -101 0
-103 101 0
-104 105 0
-106 105 0
104 106 -105 0
102 -105 0
-102 105 0
-107 108 0
-109 108 0
107 109 -108 0
106 -108 0
-106 108 0
-110 111 0
-112 111 0
110 112 -111 0
109 -111 0
-109 111 0
-113 114 0
-115 114 0
113 115 -114 0
112 -114 0
-112 114 0
-116 117 0
-118 117 0
116 118 -117 0
115 -117 0
-115 117 0
-110 119 0
-113 119 0
-116 119 0
-120 119 0
110 113 116 120 -119 0
118 -119 0
-118 119 0
-121 122 0
-123 122 0
121 123 -122 0
124 -122 0
-124 122 0
-125 126 0
-127 126 0
125 127 -126 0
123 -126 0
-123 126 0
-128 129 0
-130 129 0
128 130 -129 0
127 -129 0
-127 129 0
-131 132 0
-133 132 0
131 133 -132 0
130 -132 0
-130 132 0
-134 135 0
-136 135 0
134 136 -135 0
133 -135 0
-133 135 0
-137 138 0
-139 138 0
137 139 -138 0
136 -138 0
-136 138 0
-134 140 0
-137 140 0
-141 140 0
134 137 141 -140 0
139 -140 0
-139 140 0
-142 143 0
-144 143 0
142 144 -143 0
145 -143 0
-145 143 0
-65 146 0
-147 146 0
65 147 -146 0
144 -146 0
-144 146 0
-148 149 0
-150 149 0
148 150 -149 0
151 -149 0
-151 149 0
-152 153 0
-154 153 0
152 154 -153 0
150 -153 0
-150 153 0
-155 156 0
-157 156 0
155 157 -156 0
154 -156 0
-154 156 0
-158 159 0
-160 159 0
158 160 -159 0
157 -159 0
-157 159 0
-161 162 0
-163 162 0
161 163 -162 0
160 -162 0
-160 162 0
-164 165 0
-166 165 0
164 166 -165 0
163 -165 0
-163 165 0
-161 167 0
-164 167 0
-168 167 0
161 164 168 -167 0
166 -167 0
-166 167 0
-169 170 0
-171 170 0
169 171 -170 0
172 -170 0
-172 170 0
-29 173 0
-174 173 0
29 174 -173 0
171 -173 0
-171 173 0
-175 176 0
-177 176 0
175 177 -176 0
178 -176 0
-178 176 0
-179 180 0
-181 180 0
179 181 -180 0
177 -180 0
-177 180 0
181 -182 0
182 -181 0
-183 184 0
-185 184 0
183 185 -184 0
186 -184 0
-186 184 0
-187 188 0
-189 188 0
187 189 -188 0
185 -188 0
-185 188 0
-190 191 0
-192 191 0
190 192 -191 0
189 -191 0
-189 191 0
-193 194 0
-195 194 0
193 195 -194 0
192 -194 0
-192 194 0
-196 197 0
-198 197 0
196 198 -197 0
195 -197 0
-195 197 0
-199 200 0
-201 200 0
199 201 -200 0
198 -200 0
-198 200 0
-193 202 0
-196 202 0
-199 202 0
-203 202 0
193 196 199 203 -202 0
201 -202 0
-201 202 0
-204 205 0
-206 205 0
204 206 -205 0
207 -205 0
-207 205 0
-208 209 0
-210 209 0
208 210 -209 0
206 -209 0
-206 209 0
-211 212 0
-213 212 0
211 213 -212 0
210 -212 0
-210 212 0
-214 215 0
-216 215 0
214 216 -215 0
213 -215 0
-213 215 0
216 -217 0
217 -216 0
-218 219 0
-220 219 0
218 220 -219 0
221 -219 0
-221 219 0
-222 223 0
-224 223 0
222 224 -223 0
220 -223 0
-220 223 0
-225 226 0
-227 226 0
225 227 -226 0
224 -226 0
-224 226 0
-228 229 0
-230 229 0
228 230 -229 0
227 -229 0
-227 229 0
-228 231 0
-232 231 0
228 232 -231 0
230 -231 0
-230 231 0
-178 233 0
-234 233 0
178 234 -233 0
235 -233 0
-235 233 0
-236 237 0
-238 237 0
236 238 -237 0
239 -237 0
-239 237 0
-240 241 0
-242 241 0
240 242 -241 0
238 -241 0
-238 241 0
-195 243 0
-244 243 0
195 244 -243 0
242 -243 0
-242 243 0
-245 246 0
-247 246 0
245 247 -246 0
248 -246 0
-248 246 0
-139 249 0
-250 249 0
139 250 -249 0
247 -249 0
-247 249 0
-251 252 0
-253 252 0
251 253 -252 0
254 -252 0
-254 252 0
-255 256 0
-257 256 0
255 257 -256 0
253 -256 0
-253 256 0
-258 259 0
-260 259 0
258 260 -259 0
257 -259 0
-257 259 0
-261 262 0
-263 262 0
261 263 -262 0
260 -262 0
-260 262 0
-207 264 0
-265 264 0
207 265 -264 0
263 -264 0
-263 264 0
-266 267 0
-268 267 0
266 268 -267 0
269 -267 0
-269 267 0
-270 271 0
-272 271 0
270 272 -271 0
268 -271 0
-268 271 0
-177 273 0
-274 273 0
177 274 -273 0
272 -273 0
-272 273 0
275 276 0
277 276 0
-275 -277 -276 0
-20 276 -278 0
20 -276 -278 0
278 -276 -20 0
20 276 278 0
-278 0
279 280 0
281 280 0
-279 -281 -280 0
-24 280 -282 0
24 -280 -282 0
282 -280 -24 0
24 280 282 0
-282 0
283 284 0
285 284 0
-283 -285 -284 0
-27 284 -286 0
27 -284 -286 0
286 -284 -27 0
27 284 286 0
-286 0
287 288 0
289 288 0
-287 -289 -288 0
-30 288 -290 0
30 -288 -290 0
290 -288 -30 0
30 288 290 0
-290 0
291 292 0
293 292 0
-291 -293 -292 0
-33 292 -294 0
33 -292 -294 0
294 -292 -33 0
33 292 294 0
-294 0
295 296 0
297 296 0
-295 -297 -296 0
-37 296 -298 0
37 -296 -298 0
298 -296 -37 0
37 296 298 0
-298 0
299 300 0
301 300 0
-299 -301 -300 0
-38 300 -302 0
38 -300 -302 0
302 -300 -38 0
38 300 302 0
-302 0
303 304 0
305 304 0
-303 -305 -304 0
-42 304 -306 0
42 -304 -306 0
306 -304 -42 0
42 304 306 0
-306 0
307 308 0
309 308 0
-307 -309 -308 0
-45 308 -310 0
45 -308 -310 0
310 -308 -45 0
45 308 310 0
-310 0
311 312 0
313 312 0
-311 -313 -312 0
-48 312 -314 0
48 -312 -314 0
314 -312 -48 0
48 312 314 0
-314 0
315 316 0
317 316 0
-315 -317 -316 0
-51 316 -318 0
51 -316 -318 0
318 -316 -51 0
51 316 318 0
-318 0
319 320 0
321 320 0
-319 -321 -320 0
-55 320 -322 0
55 -320 -322 0
322 -320 -55 0
55 320 322 0
-322 0
323 324 0
325 324 0
-323 -325 -324 0
-56 324 -326 0
56 -324 -326 0
326 -324 -56 0
56 324 326 0
-326 0
327 328 0
329 328 0
-327 -329 -328 0
-60 328 -330 0
60 -328 -330 0
330 -328 -60 0
60 328 330 0
-330 0
331 332 0
333 332 0
-331 -333 -332 0
-63 332 -334 0
63 -332 -334 0
334 -332 -63 0
63 332 334 0
-334 0
335 336 0
337 336 0
-335 -337 -336 0
-67 336 -338 0
67 -336 -338 0
338 -336 -67 0
67 336 338 0
-338 0
339 340 0
341 340 0
-339 -341 -340 0
-68 340 -342 0
68 -340 -342 0
342 -340 -68 0
68 340 342 0
-342 0
343 344 0
345 344 0
-343 -345 -344 0
-72 344 -346 0
72 -344 -346 0
346 -344 -72 0
72 344 346 0
-346 0
347 348 0
349 348 0
-347 -349 -348 0
-75 348 -350 0
75 -348 -350 0
350 -348 -75 0
75 348 350 0
-350 0
351 352 0
353 352 0
-351 -353 -352 0
-78 352 -354 0
78 -352 -354 0
354 -352 -78 0
78 352 354 0
-354 0
355 356 0
357 356 0
-355 -357 -356 0
-81 356 -358 0
81 -356 -358 0
358 -356 -81 0
81 356 358 0
-358 0
359 360 0
361 360 0
-359 -361 -360 0
-85 360 -362 0
85 -360 -362 0
362 -360 -85 0
85 360 362 0
-362 0
363 364 0
365 364 0
-363 -365 -364 0
-86 364 -366 0
86 -364 -366 0
366 -364 -86 0
86 364 366 0
-366 0
367 368 0
369 368 0
-367 -369 -368 0
-90 368 -370 0
90 -368 -370 0
370 -368 -90 0
90 368 370 0
-370 0
371 372 0
373 372 0
-371 -373 -372 0
-93 372 -374 0
93 -372 -374 0
374 -372 -93 0
93 372 374 0
-374 0
375 376 0
377 376 0
-375 -377 -376 0
-96 376 -378 0
96 -376 -378 0
378 -376 -96 0
96 376 378 0
-378 0
379 380 0
381 380 0
-379 -381 -380 0
-99 380 -382 0
99 -380 -382 0
382 -380 -99 0
99 380 382 0
-382 0
383 384 0
385 384 0
-383 -385 -384 0
-100 384 -386 0
100 -384 -386 0
386 -384 -100 0
100 384 386 0
-386 0
387 388 0
389 388 0
-387 -389 -388 0
-104 388 -390 0
104 -388 -390 0
390 -388 -104 0
104 388 390 0
-390 0
391 392 0
393 392 0
-391 -393 -392 0
-107 392 -394 0
107 -392 -394 0
394 -392 -107 0
107 392 394 0
-394 0
395 396 0
397 396 0
-395 -397 -396 0
-110 396 -398 0
110 -396 -398 0
398 -396 -110 0
110 396 398 0
-398 0
399 400 0
401 400 0
-399 -401 -400 0
-113 400 -402 0
113 -400 -402 0
402 -400 -113 0
113 400 402 0
-402 0
403 404 0
405 404 0
-403 -405 -404 0
-116 404 -406 0
116 -404 -406 0
406 -404 -116 0
116 404 406 0
-406 0
407 408 0
409 408 0
-407 -409 -408 0
-120 408 -410 0
120 -408 -410 0
410 -408 -120 0
120 408 410 0
-410 0
411 412 0
413 412 0
-411 -413 -412 0
-121 412 -414 0
121 -412 -414 0
414 -412 -121 0
121 412 414 0
-414 0
415 416 0
417 416 0
-415 -417 -416 0
-125 416 -418 0
125 -416 -418 0
418 -416 -125 0
125 416 418 0
-418 0
419 420 0
421 420 0
-419 -421 -420 0
-128 420 -422 0
128 -420 -422 0
422 -420 -128 0
128 420 422 0
-422 0
423 424 0
425 424 0
-423 -425 -424 0
-131 424 -426 0
131 -424 -426 0
426 -424 -131 0
131 424 426 0
-426 0
427 428 0
429 428 0
-427 -429 -428 0
-134 428 -430 0
134 -428 -430 0
430 -428 -134 0
134 428 430 0
-430 0
431 432 0
433 432 0
-431 -433 -432 0
-137 432 -434 0
137 -432 -434 0
434 -432 -137 0
137 432 434 0
-434 0
435 436 0
437 436 0
-435 -437 -436 0
-141 436 -438 0
141 -436 -438 0
438 -436 -141 0
141 436 438 0
-438 0
439 440 0
441 440 0
-439 -441 -440 0
-142 440 -442 0
142 -440 -442 0
442 -440 -142 0
142 440 442 0
-442 0
443 444 0
445 444 0
-443 -445 -444 0
-147 444 -446 0
147 -444 -446 0
446 -444 -147 0
147 444 446 0
-446 0
447 448 0
449 448 0
-447 -449 -448 0
-148 448 -450 0
148 -448 -450 0
450 -448 -148 0
148 448 450 0
-450 0
451 452 0
453 452 0
-451 -453 -452 0
-152 452 -454 0
152 -452 -454 0
454 -452 -152 0
152 452 454 0
-454 0
455 456 0
457 456 0
-455 -457 -456 0
-155 456 -458 0
155 -456 -458 0
458 -456 -155 0
155 456 458 0
-458 0
459 460 0
461 460 0
-459 -461 -460 0
-158 460 -462 0
158 -460 -462 0
462 -460 -158 0
158 460 462 0
-462 0
463 464 0
465 464 0
-463 -465 -464 0
-161 464 -466 0
161 -464 -466 0
466 -464 -161 0
161 464 466 0
-466 0
467 468 0
469 468 0
-467 -469 -468 0
-164 468 -470 0
164 -468 -470 0
470 -468 -164 0
164 468 470 0
-470 0
471 472 0
473 472 0
-471 -473 -472 0
-168 472 -474 0
168 -472 -474 0
474 -472 -168 0
168 472 474 0
-474 0
475 476 0
477 476 0
-475 -477 -476 0
-169 476 -478 0
169 -476 -478 0
478 -476 -169 0
169 476 478 0
-478 0
479 480 0
481 480 0
-479 -481 -480 0
-174 480 -482 0
174 -480 -482 0
482 -480 -174 0
174 480 482 0
-482 0
483 484 0
485 484 0
-483 -485 -484 0
-175 484 -486 0
175 -484 -486 0
486 -484 -175 0
175 484 486 0
-486 0
487 488 0
489 488 0
-487 -489 -488 0
-179 488 -490 0
179 -488 -490 0
490 -488 -179 0
179 488 490 0
-490 0
491 492 0
493 492 0
-491 -493 -492 0
-182 492 -494 0
182 -492 -494 0
494 -492 -182 0
182 492 494 0
-494 0
495 496 0
497 496 0
-495 -497 -496 0
-183 496 -498 0
183 -496 -498 0
498 -496 -183 0
183 496 498 0
-498 0
499 500 0
501 500 0
-499 -501 -500 0
-187 500 -502 0
187 -500 -502 0
502 -500 -187 0
187 500 502 0
-502 0
503 504 0
505 504 0
-503 -505 -504 0
-190 504 -506 0
190 -504 -506 0
506 -504 -190 0
190 504 506 0
-506 0
507 508 0
509 508 0
-507 -509 -508 0
-193 508 -510 0
193 -508 -510 0
510 -508 -193 0
193 508 510 0
-510 0
511 512 0
513 512 0
-511 -513 -512 0
-196 512 -514 0
196 -512 -514 0
514 -512 -196 0
196 512 514 0
-514 0
515 516 0
517 516 0
-515 -517 -516 0
-199 516 -518 0
199 -516 -518 0
518 -516 -199 0
199 516 518 0
-518 0
519 520 0
521 520 0
-519 -521 -520 0
-203 520 -522 0
203 -520 -522 0
522 -520 -203 0
203 520 522 0
-522 0
523 524 0
525 524 0
-523 -525 -524 0
-204 524 -526 0
204 -524 -526 0
526 -524 -204 0
204 524 526 0
-526 0
527 528 0
529 528 0
-527 -529 -528 0
-208 528 -530 0
208 -528 -530 0
530 -528 -208 0
208 528 530 0
-530 0
531 532 0
533 532 0
-531 -533 -532 0
-211 532 -534 0
211 -532 -534 0
534 -532 -211 0
211 532 534 0
-534 0
535 536 0
537 536 0
-535 -537 -536 0
-214 536 -538 0
214 -536 -538 0
538 -536 -214 0
214 536 538 0
-538 0
539 540 0
541 540 0
-539 -541 -540 0
-217 540 -542 0
217 -540 -542 0
542 -540 -217 0
217 540 542 0
-542 0
543 544 0
545 544 0
-543 -545 -544 0
-218 544 -546 0
218 -544 -546 0
546 -544 -218 0
218 544 546 0
-546 0
547 548 0
549 548 0
-547 -549 -548 0
-222 548 -550 0
222 -548 -550 0
550 -548 -222 0
222 548 550 0
-550 0
551 552 0
553 552 0
-551 -553 -552 0
-225 552 -554 0
225 -552 -554 0
554 -552 -225 0
225 552 554 0
-554 0
555 556 0
557 556 0
-555 -557 -556 0
-228 556 -558 0
228 -556 -558 0
558 -556 -228 0
228 556 558 0
-558 0
559 560 0
561 560 0
-559 -561 -560 0
-232 560 -562 0
232 -560 -562 0
562 -560 -232 0
232 560 562 0
-562 0
563 564 0
565 564 0
-563 -565 -564 0
-234 564 -566 0
234 -564 -566 0
566 -564 -234 0
234 564 566 0
-566 0
567 568 0
569 568 0
-567 -569 -568 0
-236 568 -570 0
236 -568 -570 0
570 -568 -236 0
236 568 570 0
-570 0
571 572 0
573 572 0
-571 -573 -572 0
-240 572 -574 0
240 -572 -574 0
574 -572 -240 0
240 572 574 0
-574 0
575 576 0
577 576 0
-575 -577 -576 0
-244 576 -578 0
244 -576 -578 0
578 -576 -244 0
244 576 578 0
-578 0
579 580 0
581 580 0
-579 -581 -580 0
-245 580 -582 0
245 -580 -582 0
582 -580 -245 0
245 580 582 0
-582 0
583 584 0
585 584 0
-583 -585 -584 0
-250 584 -586 0
250 -584 -586 0
586 -584 -250 0
250 584 586 0
-586 0
587 588 0
589 588 0
-587 -589 -588 0
-251 588 -590 0
251 -588 -590 0
590 -588 -251 0
251 588 590 0
-590 0
591 592 0
593 592 0
-591 -593 -592 0
-255 592 -594 0
255 -592 -594 0
594 -592 -255 0
255 592 594 0
-594 0
595 596 0
597 596 0
-595 -597 -596 0
-258 596 -598 0
258 -596 -598 0
598 -596 -258 0
258 596 598 0
-598 0
599 600 0
601 600 0
-599 -601 -600 0
-261 600 -602 0
261 -600 -602 0
602 -600 -261 0
261 600 602 0
-602 0
603 604 0
605 604 0
-603 -605 -604 0
-265 604 -606 0
265 -604 -606 0
606 -604 -265 0
265 604 606 0
-606 0
607 608 0
609 608 0
-607 -609 -608 0
-266 608 -610 0
266 -608 -610 0
610 -608 -266 0
266 608 610 0
-610 0
611 612 0
613 612 0
-611 -613 -612 0
-270 612 -614 0
270 -612 -614 0
614 -612 -270 0
270 612 614 0
-614 0
615 616 0
617 616 0
-615 -617 -616 0
-274 616 -618 0
274 -616 -618 0
618 -616 -274 0
274 616 618 0
-618 0
-275 0
-279 0
-283 0
287 0
-291 0
-295 0
-299 0
303 0
-307 0
311 0
315 0
319 0
323 0
327 0
331 0
335 0
-339 0
-343 0
347 0
351 0
-355 0
359 0
363 0
367 0
371 0
-375 0
379 0
-383 0
387 0
-391 0
395 0
-399 0
403 0
407 0
-411 0
415 0
-419 0
-423 0
-427 0
-431 0
435 0
-439 0
443 0
-447 0
451 0
455 0
-459 0
463 0
-467 0
-471 0
-475 0
479 0
-483 0
487 0
-491 0
-495 0
-499 0
-503 0
507 0
511 0
-515 0
519 0
523 0
-527 0
531 0
-535 0
539 0
-543 0
-547 0
551 0
555 0
-559 0
-563 0
-567 0
-571 0
-575 0
-579 0
583 0
-587 0
591 0
595 0
599 0
-603 0
-607 0
-611 0
-615 0
-281 619 0
-620 619 0
281 620 -619 0
277 -619 0
-277 619 0
-285 621 0
-622 621 0
285 622 -621 0
281 -621 0
-281 621 0
-289 623 0
-624 623 0
289 624 -623 0
285 -623 0
-285 623 0
-293 625 0
-626 625 0
293 626 -625 0
289 -625 0
-289 625 0
-297 627 0
-628 627 0
297 628 -627 0
293 -627 0
-293 627 0
-628 629 0
-630 629 0
628 630 -629 0
297 -629 0
-297 629 0
-305 631 0
-632 631 0
305 632 -631 0
301 -631 0
-301 631 0
-309 633 0
-634 633 0
309 634 -633 0
305 -633 0
-305 633 0
-313 635 0
-636 635 0
313 636 -635 0
309 -635 0
-309 635 0
-317 637 0
-638 637 0
317 638 -637 0
313 -637 0
-313 637 0
-321 639 0
-640 639 0
321 640 -639 0
317 -639 0
-317 639 0
-636 641 0
-638 641 0
-640 641 0
-642 641 0
636 638 640 642 -641 0
321 -641 0
-321 641 0
-329 643 0
-644 643 0
329 644 -643 0
325 -643 0
-325 643 0
-333 645 0
-646 645 0
333 646 -645 0
329 -645 0
-329 645 0
-337 647 0
-648 647 0
337 648 -647 0
333 -647 0
-333 647 0
-644 649 0
-646 649 0
-648 649 0
-650 649 0
644 646 648 650 -649 0
337 -649 0
-337 649 0
-345 651 0
-652 651 0
345 652 -651 0
341 -651 0
-341 651 0
-349 653 0
-654 653 0
349 654 -653 0
345 -653 0
-345 653 0
-353 655 0
-656 655 0
353 656 -655 0
349 -655 0
-349 655 0
-357 657 0
-658 657 0
357 658 -657 0
353 -657 0
-353 657 0
-361 659 0
-660 659 0
361 660 -659 0
357 -659 0
-357 659 0
-656 661 0
-658 661 0
-660 661 0
-662 661 0
656 658 660 662 -661 0
361 -661 0
-361 661 0
-369 663 0
-664 663 0
369 664 -663 0
365 -663 0
-365 663 0
-373 665 0
-666 665 0
373 666 -665 0
369 -665 0
-369 665 0
-377 667 0
-668 667 0
377 668 -667 0
373 -667 0
-373 667 0
-381 669 0
-670 669 0
381 670 -669 0
377 -669 0
-377 669 0
381 -671 0
671 -381 0
-389 672 0
-673 672 0
389 673 -672 0
385 -672 0
-385 672 0
-393 674 0
-675 674 0
393 675 -674 0
389 -674 0
-389 674 0
-397 676 0
-677 676 0
397 677 -676 0
393 -676 0
-393 676 0
-401 678 0
-679 678 0
401 679 -678 0
397 -678 0
-397 678 0
-405 680 0
-681 680 0
405 681 -680 0
401 -680 0
-401 680 0
-409 682 0
-683 682 0
409 683 -682 0
405 -682 0
-405 682 0
-679 684 0
-681 684 0
-683 684 0
-685 684 0
679 681 683 685 -684 0
409 -684 0
-409 684 0
-417 686 0
-687 686 0
417 687 -686 0
413 -686 0
-413 686 0
-421 688 0
-689 688 0
421 689 -688 0
417 -688 0
-417 688 0
-425 690 0
-691 690 0
425 691 -690 0
421 -690 0
-421 690 0
-429 692 0
-693 692 0
429 693 -692 0
425 -692 0
-425 692 0
-433 694 0
-695 694 0
433 695 -694 0
429 -694 0
-429 694 0
-437 696 0
-697 696 0
437 697 -696 0
433 -696 0
-433 696 0
-695 698 0
-697 698 0
-699 698 0
695 697 699 -698 0
437 -698 0
-437 698 0
-445 700 0
-701 700 0
445 701 -700 0
441 -700 0
-441 700 0
-337 702 0
-703 702 0
337 703 -702 0
445 -702 0
-445 702 0
-453 704 0
-705 704 0
453 705 -704 0
449 -704 0
-449 704 0
-457 706 0
-707 706 0
457 707 -706 0
453 -706 0
-453 706 0
-461 708 0
-709 708 0
461 709 -708 0
457 -708 0
-457 708 0
-465 710 0
-711 710 0
465 711 -710 0
461 -710 0
-461 710 0
-469 712 0
-713 712 0
469 713 -712 0
465 -712 0
-465 712 0
-473 714 0
-715 714 0
473 715 -714 0
469 -714 0
-469 714 0
-713 716 0
-715 716 0
-717 716 0
713 715 717 -716 0
473 -716 0
-473 716 0
-481 718 0
-719 718 0
481 719 -718 0
477 -718 0
-477 718 0
-289 720 0
-721 720 0
289 721 -720 0
481 -720 0
-481 720 0
-489 722 0
-723 722 0
489 723 -722 0
485 -722 0
-485 722 0
-493 724 0
-725 724 0
493 725 -724 0
489 -724 0
-489 724 0
493 -726 0
726 -493 0
-501 727 0
-728 727 0
501 728 -727 0
497 -727 0
-497 727 0
-505 729 0
-730 729 0
505 730 -729 0
501 -729 0
-501 729 0
-509 731 0
-732 731 0
509 732 -731 0
505 -731 0
-505 731 0
-513 733 0
-734 733 0
513 734 -733 0
509 -733 0
-509 733 0
-517 735 0
-736 735 0
517 736 -735 0
513 -735 0
-513 735 0
-521 737 0
-738 737 0
521 738 -737 0
517 -737 0
-517 737 0
-734 739 0
-736 739 0
-738 739 0
-740 739 0
734 736 738 740 -739 0
521 -739 0
-521 739 0
-529 741 0
-742 741 0
529 742 -741 0
525 -741 0
-525 741 0
-533 743 0
-744 743 0
533 744 -743 0
529 -743 0
-529 743 0
-537 745 0
-746 745 0
537 746 -745 0
533 -745 0
-533 745 0
-541 747 0
-748 747 0
541 748 -747 0
537 -747 0
-537 747 0
541 -749 0
749 -541 0
-549 750 0
-751 750 0
549 751 -750 0
545 -750 0
-545 750 0
-553 752 0
-753 752 0
553 753 -752 0
549 -752 0
-549 752 0
-557 754 0
-755 754 0
557 755 -754 0
553 -754 0
-553 754 0
-561 756 0
-757 756 0
561 757 -756 0
557 -756 0
-557 756 0
-757 758 0
-759 758 0
757 759 -758 0
561 -758 0
-561 758 0
-485 760 0
-761 760 0
485 761 -760 0
565 -760 0
-565 760 0
-573 762 0
-763 762 0
573 763 -762 0
569 -762 0
-569 762 0
-577 764 0
-765 764 0
577 765 -764 0
573 -764 0
-573 764 0
-513 766 0
-767 766 0
513 767 -766 0
577 -766 0
-577 766 0
-585 768 0
-769 768 0
585 769 -768 0
581 -768 0
-581 768 0
-437 770 0
-771 770 0
437 771 -770 0
585 -770 0
-585 770 0
-593 772 0
-773 772 0
593 773 -772 0
589 -772 0
-589 772 0
-597 774 0
-775 774 0
597 775 -774 0
593 -774 0
-593 774 0
-601 776 0
-777 776 0
601 777 -776 0
597 -776 0
-597 776 0
-605 778 0
-779 778 0
605 779 -778 0
601 -778 0
-601 778 0
-525 780 0
-781 780 0
525 781 -780 0
605 -780 0
-605 780 0
-613 782 0
-783 782 0
613 783 -782 0
609 -782 0
-609 782 0
-617 784 0
-785 784 0
617 785 -784 0
613 -784 0
-613 784 0
-489 786 0
-787 786 0
489 787 -786 0
617 -786 0
-617 786 0
-620 0
622 0
624 0
626 0
628 0
-630 0
-632 0
634 0
-636 0
638 0
-640 0
-642 0
644 0
646 0
-648 0
-650 0
-652 0
654 0
656 0
658 0
660 0
-662 0
-664 0
-666 0
668 0
670 0
671 0
-673 0
-675 0
677 0
-679 0
681 0
-683 0
685 0
687 0
-689 0
691 0
-693 0
-695 0
-697 0
-699 0
-701 0
703 0
-705 0
707 0
-709 0
-711 0
713 0
-715 0
717 0
719 0
-721 0
723 0
-725 0
-726 0
728 0
730 0
-732 0
-734 0
-736 0
-738 0
-740 0
-742 0
-744 0
-746 0
-748 0
-749 0
-751 0
-753 0
-755 0
-757 0
-759 0
761 0
-763 0
765 0
767 0
-769 0
-771 0
773 0
-775 0
-777 0
-779 0
-781 0
-783 0
785 0
-787 0
-788 -789 0
-788 -790 0
-788 -791 0
-788 -792 0
793 -788 0
-788 -794 0
-788 -795 0
-788 -796 0
797 -788 0
-788 -798 0
799 -788 0
800 -788 0
801 -788 0
802 -788 0
803 -788 0
804 -788 0
805 -788 0
-788 -806 0
-788 -807 0
-788 808 0
-788 809 0
-788 -810 0
-788 811 0
-788 812 0
-788 813 0
814 -788 0
-788 -815 0
816 -788 0
-788 -817 0
818 -788 0
-788 -819 0
820 -788 0
-788 -821 0
822 -788 0
823 -788 0
-788 -824 0
825 -788 0
-788 -826 0
-788 -827 0
-788 -828 0
-788 -829 0
830 -788 0
-788 -831 0
832 -788 0
-788 -833 0
834 -788 0
835 -788 0
-788 -836 0
837 -788 0
-788 -838 0
-788 -839 0
-788 -840 0
841 -788 0
-788 -842 0
843 -788 0
-788 -844 0
-788 -845 0
-788 -846 0
-788 -847 0
848 -788 0
849 -788 0
-788 -850 0
851 -788 0
852 -788 0
-788 -853 0
854 -788 0
-788 -855 0
856 -788 0
-788 -857 0
-788 -858 0
859 -788 0
860 -788 0
-788 -861 0
-788 -862 0
-788 -863 0
-788 -864 0
-788 -865 0
-788 -866 0
867 -788 0
-788 -868 0
869 -788 0
870 -788 0
871 -788 0
-788 -872 0
-788 -873 0
-788 -874 0
-788 -875 0
-789 -790 0
791 -789 0
792 -789 0
793 -789 0
794 -789 0
-789 -795 0
-789 -796 0
797 -789 0
-789 -798 0
799 -789 0
-789 -800 0
-789 -801 0
802 -789 0
803 -789 0
-789 -804 0
-789 -805 0
-789 -806 0
-789 807 0
-789 808 0
-789 809 0
-789 810 0
-789 -811 0
-789 -812 0
-789 -813 0
-789 814 0
-789 815 0
816 -789 0
-789 -817 0
-789 -818 0
819 -789 0
-789 -820 0
821 -789 0
-789 -822 0
823 -789 0
824 -789 0
-789 -825 0
826 -789 0
-789 -827 0
-789 -828 0
-789 -829 0
-789 -830 0
-789 -831 0
832 -789 0
-789 -833 0
834 -789 0
-789 -835 0
-789 -836 0
837 -789 0
-789 -838 0
839 -789 0
840 -789 0
-789 -841 0
842 -789 0
-789 -843 0
-789 -844 0
845 -789 0
846 -789 0
-789 -847 0
-789 -848 0
-789 -849 0
-789 -850 0
-789 -851 0
-789 -852 0
-789 -853 0
-789 -854 0
-789 -855 0
-789 -856 0
-789 -857 0
-789 -858 0
-789 -859 0
-789 -860 0
-789 -861 0
862 -789 0
-789 -863 0
864 -789 0
865 -789 0
-789 -866 0
-789 -867 0
868 -789 0
-789 -869 0
-789 -870 0
-789 -871 0
-789 -872 0
-789 -873 0
874 -789 0
-789 -875 0
788 789 0
-876 0
-877 0
-878 0
-879 0
-880 0
-881 0
-882 0
-883 0
